; benchmark generated from python API
(set-info :status unknown)
(declare-datatypes ((RealState 0)) (((RMk1 (rval1 Real)) (RMk2 (rval2 Real)))))
 (assert
 (forall ((|v11:0| Real) )(exists ((|v10:1_st| RealState) (val!1710 Real) )(forall ((|v9:2| Real) )(exists ((|v8:3_st| RealState) (val!1711 Real) )(forall ((|v7:4| Real) )(exists ((|v6:5_st| RealState) (val!1712 Real) )(forall ((|v5:6| Real) )(exists ((|v4:7_st| RealState) (val!1713 Real) )(forall ((|v3:8| Real) )(exists ((|v2:9_st| RealState) (val!1714 Real) )(forall ((|v1:10| Real) )(exists ((|v0:11_st| RealState) (val!1715 Real) )(let ((?x164 (- 14.0)))
 (let ((?x1292 (rval2 |v8:3_st|)))
 (let ((?x1875 (* 12.0 ?x1292)))
 (let ((?x1194 (rval2 |v10:1_st|)))
 (let ((?x522 (- 18.0)))
 (let ((?x1131 (* ?x522 ?x1194)))
 (let (($x2283 (<= (+ (+ (+ (* 3.0 |v9:2|) (* (- 11.0) (rval2 |v0:11_st|))) ?x1131) ?x1875) ?x164)))
 (let ((?x731 (* 12.0 |v9:2|)))
 (let ((?x2338 (+ (+ (+ (* 4.0 |v7:4|) (* (- 7.0) (rval2 |v6:5_st|))) (* 13.0 ?x1194)) ?x731)))
 (let ((?x132 (+ (+ (+ (* 5.0 (rval2 |v4:7_st|)) (* 17.0 |v1:10|)) (* 4.0 ?x1292)) (* (- 19.0) ?x1292))))
 (let ((?x650 (- 10.0)))
 (let ((?x687 (* 6.0 |v3:8|)))
 (let ((?x524 (+ (+ (+ (rval2 |v6:5_st|) (* 20.0 (rval2 |v2:9_st|))) (* (- 8.0) |v11:0|)) ?x687)))
 (let (($x1344 (and (or (<= ?x524 ?x650) (<= ?x132 4.0)) (or (<= ?x2338 15.0) $x2283))))
 (let ((?x1204 (- 3.0)))
 (let ((?x2638 (+ (+ (+ (* 19.0 ?x1194) (* ?x164 (rval2 |v4:7_st|))) (* 3.0 |v7:4|)) (* (- 16.0) |v11:0|))))
 (let ((?x135 (- 4.0)))
 (let ((?x995 (* 20.0 |v11:0|)))
 (let ((?x1363 (+ (+ (+ (* 20.0 |v3:8|) (* 16.0 |v9:2|)) (* 15.0 (rval2 |v0:11_st|))) ?x995)))
 (let ((?x2397 (+ (+ (+ (* ?x1204 |v3:8|) (* 4.0 (rval2 |v4:7_st|))) (* (- 5.0) |v9:2|)) ?x1194)))
 (let ((?x266 (- 2.0)))
 (let ((?x853 (* 8.0 |v7:4|)))
 (let ((?x752 (+ (+ (+ (* (- 9.0) ?x1194) (* 12.0 (rval2 |v4:7_st|))) (* 0.0 ?x1292)) ?x853)))
 (let (($x575 (and (or (<= ?x752 ?x266) (<= ?x2397 14.0)) (and (<= ?x1363 ?x135) (<= ?x2638 ?x1204)))))
 (let ((?x1438 (- 17.0)))
 (let ((?x1104 (+ (+ (+ (* ?x650 (rval2 |v0:11_st|)) (* (- 7.0) ?x1292)) (* 19.0 |v5:6|)) (* ?x164 |v7:4|))))
 (let ((?x1599 (rval2 |v2:9_st|)))
 (let ((?x1529 (* 10.0 ?x1599)))
 (let (($x962 (<= (+ (+ (+ (* 16.0 |v3:8|) (* (- 19.0) (rval2 |v4:7_st|))) ?x1529) ?x1131) 4.0)))
 (let ((?x1847 (* 20.0 |v3:8|)))
 (let ((?x1874 (+ (+ (+ (* ?x266 |v1:10|) (* ?x1438 |v7:4|)) (* 17.0 (rval2 |v4:7_st|))) ?x1847)))
 (let ((?x2177 (rval2 |v6:5_st|)))
 (let ((?x170 (* 4.0 ?x2177)))
 (let (($x2021 (<= (+ (+ (+ (* 14.0 ?x2177) (* ?x1438 |v7:4|)) (* ?x522 |v5:6|)) ?x170) 8.0)))
 (let ((?x394 (+ (+ (+ (* 18.0 |v7:4|) (* 13.0 ?x1292)) (* 5.0 (rval2 |v0:11_st|))) (* (- 5.0) (rval2 |v0:11_st|)))))
 (let ((?x759 (rval2 |v0:11_st|)))
 (let ((?x349 (- 19.0)))
 (let ((?x29 (* ?x349 ?x759)))
 (let (($x1220 (<= (+ (+ (+ (* ?x522 |v5:6|) (* ?x1204 ?x1292)) (* 11.0 |v5:6|)) ?x29) ?x1438)))
 (let ((?x352 (+ (+ (+ (* ?x164 (rval2 |v4:7_st|)) (* (- 15.0) |v3:8|)) ?x1529) (* ?x349 ?x2177))))
 (let (($x328 (and (or (<= ?x352 16.0) (and $x1220 (<= ?x394 ?x1438))) (and (or $x2021 (<= ?x1874 17.0)) (and $x962 (<= ?x1104 ?x1438))))))
 (let ((?x2245 (- 9.0)))
 (let ((?x558 (- 11.0)))
 (let ((?x145 (* ?x558 ?x759)))
 (let (($x668 (<= (+ (+ (+ (* 2.0 |v1:10|) (* 17.0 |v7:4|)) (* ?x266 ?x1292)) ?x145) ?x2245)))
 (let ((?x1504 (- 16.0)))
 (let ((?x1782 (+ (+ (+ (* 12.0 ?x759) (* 20.0 ?x759)) (* 10.0 |v11:0|)) (* ?x1504 ?x1194))))
 (let ((?x2083 (+ (+ (+ (* 7.0 |v7:4|) (* (- 13.0) ?x1194)) (* 13.0 |v7:4|)) (* 2.0 |v7:4|))))
 (let ((?x1402 (+ (+ (+ (* 9.0 |v5:6|) (* ?x349 ?x1194)) (* (- 13.0) ?x2177)) (* ?x650 ?x2177))))
 (let ((?x2642 (* 4.0 ?x1599)))
 (let ((?x1063 (+ (+ (+ (* 0.0 ?x1194) (* (- 15.0) (rval2 |v4:7_st|))) (* 5.0 |v3:8|)) ?x2642)))
 (let ((?x1439 (+ (+ (+ (* ?x164 |v3:8|) (* (- 12.0) (rval2 |v4:7_st|))) (* 3.0 ?x1599)) (* 6.0 ?x1599))))
 (let ((?x699 (* 12.0 ?x1599)))
 (let (($x589 (<= (+ (+ (+ (* 0.0 |v7:4|) (* ?x266 ?x2177)) (* (- 5.0) |v7:4|)) ?x699) 8.0)))
 (let ((?x2093 (- 1.0)))
 (let ((?x779 (* ?x1204 |v5:6|)))
 (let ((?x2288 (+ (+ (+ (* (- 15.0) |v1:10|) (* 13.0 |v11:0|)) (* 13.0 |v9:2|)) ?x779)))
 (let (($x188 (and (or (<= ?x2288 ?x2093) $x589) (and (<= ?x1439 ?x522) (<= ?x1063 17.0)))))
 (let (($x2429 (and $x188 (and (and (<= ?x1402 ?x164) (<= ?x2083 ?x522)) (and (<= ?x1782 ?x1504) $x668)))))
 (let ((?x2610 (+ (+ (+ (* ?x650 |v9:2|) (* ?x522 |v1:10|)) (* 13.0 |v5:6|)) (* (- 12.0) ?x759))))
 (let ((?x1788 (* ?x1204 ?x1292)))
 (let (($x1813 (<= (+ (+ (+ (* ?x1438 ?x1599) (* ?x1438 ?x2177)) (* 13.0 |v3:8|)) ?x1788) 6.0)))
 (let ((?x663 (* 7.0 ?x1292)))
 (let (($x2895 (<= (+ (+ (+ (* ?x266 ?x1292) (* ?x266 |v11:0|)) (* 14.0 |v11:0|)) ?x663) ?x522)))
 (let ((?x493 (+ (+ (+ (* 16.0 (rval2 |v4:7_st|)) (* ?x164 |v1:10|)) (* 10.0 |v3:8|)) ?x853)))
 (let ((?x2897 (+ (+ (+ (* 3.0 (rval2 |v4:7_st|)) (* 7.0 ?x759)) (* 13.0 ?x2177)) (* (- 12.0) ?x1194))))
 (let (($x2144 (<= (+ (+ (+ (* ?x266 ?x1194) ?x2177) (* 0.0 |v9:2|)) (* ?x650 ?x759)) ?x349)))
 (let ((?x2852 (+ (+ (+ (* ?x1204 ?x1194) (* ?x135 |v7:4|)) (* ?x266 (rval2 |v4:7_st|))) (* (- 7.0) ?x1194))))
 (let ((?x26 (* ?x522 |v5:6|)))
 (let (($x1910 (<= (+ (+ (+ (* 14.0 |v9:2|) (* ?x1504 ?x1292)) (* ?x650 |v5:6|)) ?x26) 11.0)))
 (let (($x2042 (or (or (or $x1910 (<= ?x2852 20.0)) (and $x2144 (<= ?x2897 ?x1438))) (or (and (<= ?x493 14.0) $x2895) (or $x1813 (<= ?x2610 ?x135))))))
 (let ((?x2219 (* 14.0 |v1:10|)))
 (let (($x1913 (<= (+ (+ (+ (* 5.0 |v1:10|) (* 0.0 |v1:10|)) (* ?x1504 ?x759)) ?x2219) 13.0)))
 (let ((?x2655 (rval2 |v4:7_st|)))
 (let ((?x1136 (* ?x1504 ?x2655)))
 (let (($x2325 (<= (+ (+ (+ (* ?x135 ?x759) (* 6.0 ?x2177)) (* ?x164 ?x2177)) ?x1136) 13.0)))
 (let ((?x958 (* 6.0 ?x2177)))
 (let (($x2538 (<= (+ (+ (+ (* ?x266 ?x1599) (* 9.0 |v11:0|)) (* (- 12.0) ?x1599)) ?x958) ?x349)))
 (let ((?x989 (* 11.0 |v5:6|)))
 (let (($x300 (<= (+ (+ (+ (* ?x650 |v3:8|) (* 0.0 ?x759)) (* 15.0 ?x1194)) ?x989) ?x349)))
 (let ((?x2176 (+ (+ (+ (* (- 5.0) ?x1292) (* ?x558 ?x2655)) (* 9.0 |v1:10|)) (* ?x2093 ?x1599))))
 (let ((?x955 (* 14.0 |v11:0|)))
 (let (($x2233 (<= (+ (+ (+ (* 7.0 ?x759) (* 12.0 |v11:0|)) (* 19.0 |v3:8|)) ?x955) ?x522)))
 (let ((?x1496 (- 12.0)))
 (let ((?x1268 (* ?x1496 |v1:10|)))
 (let (($x2165 (<= (+ (+ (+ (* 8.0 ?x2177) (* 6.0 |v9:2|)) (* ?x349 |v11:0|)) ?x1268) 16.0)))
 (let ((?x1579 (- 7.0)))
 (let ((?x1279 (+ (+ (+ (* 3.0 ?x1194) (* 8.0 ?x2177)) (* ?x1204 ?x759)) (* 8.0 ?x2655))))
 (let (($x724 (and (or (or (<= ?x1279 ?x1579) $x2165) (and $x2233 (<= ?x2176 8.0))) (and (or $x300 $x2538) (and $x2325 $x1913)))))
 (let ((?x2707 (- 5.0)))
 (let ((?x174 (* ?x2707 ?x1292)))
 (let (($x2220 (<= (+ (+ (+ (* 14.0 |v7:4|) (* ?x135 ?x2177)) (* (- 13.0) ?x1599)) ?x174) 4.0)))
 (let ((?x1375 (+ (+ (+ (* 0.0 |v3:8|) (* ?x1579 |v3:8|)) (* ?x2707 ?x2177)) (* ?x650 |v1:10|))))
 (let ((?x1324 (- 6.0)))
 (let (($x2121 (<= (+ (+ (+ (* 19.0 |v5:6|) (* ?x2245 ?x2655)) (* ?x522 |v7:4|)) ?x1131) ?x558)))
 (let (($x912 (and $x2121 (<= (+ (+ (+ ?x1136 |v1:10|) (* 13.0 ?x759)) (* ?x522 |v11:0|)) ?x1324))))
 (let ((?x2532 (- 13.0)))
 (let (($x371 (<= (+ (+ (+ ?x29 (* ?x2532 ?x1292)) (* 0.0 ?x2177)) (* 8.0 |v11:0|)) ?x2532)))
 (let (($x2454 (and $x371 (<= (+ (+ (+ ?x1131 (* 6.0 |v5:6|)) (* 2.0 |v9:2|)) ?x1292) 2.0))))
 (let ((?x448 (- 8.0)))
 (let ((?x2184 (* 13.0 |v9:2|)))
 (let (($x627 (<= (+ (+ (+ (* ?x1496 |v5:6|) (* 5.0 |v7:4|)) (* 18.0 ?x2655)) ?x2184) ?x448)))
 (let (($x58 (<= (+ (+ (+ (* ?x135 |v11:0|) (* 10.0 |v5:6|)) ?x1131) (* ?x1324 ?x2655)) 4.0)))
 (let (($x2344 (and (and (and $x58 $x627) $x2454) (or $x912 (or (<= ?x1375 17.0) $x2220)))))
 (let (($x1297 (<= (+ (+ (+ (* ?x1324 |v3:8|) (* ?x650 |v3:8|)) ?x2184) (* ?x164 |v3:8|)) 4.0)))
 (let (($x94 (and (and $x1297 (and $x2344 $x724)) (and (and $x2042 $x2429) (and $x328 (or $x575 $x1344))))))
 (let (($x1423 (not (= |v0:11_st| (RMk1 val!1715)))))
 (let (($x937 (not (= |v2:9_st| (RMk1 val!1714)))))
 (let (($x1277 (not (= |v4:7_st| (RMk1 val!1713)))))
 (let (($x1151 (not (= |v6:5_st| (RMk1 val!1712)))))
 (let (($x1011 (not (= |v8:3_st| (RMk1 val!1711)))))
 (let (($x439 (not (= |v10:1_st| (RMk1 val!1710)))))
 (and $x439 $x1011 $x1151 $x1277 $x937 $x1423 $x94))))))))))))))))))))))))))))))))))))))))))))))))))))))))))))))))))))))))))))))))))))))))))))))))))))))))))))))))))
 )
 )
 )
 )
 )
 )
 )
 )
 )
 )
 )
 )
(check-sat)
